; benchmark generated from python API
(set-info :status unknown)
(declare-fun strlen_260_64 () (_ BitVec 64))
(declare-fun args_0_8 () (_ BitVec 8))
(declare-fun strlen_78_64 () (_ BitVec 64))
(declare-fun strncmp_ret_261_32 () (_ BitVec 32))
(declare-fun strncmp_ret_79_32 () (_ BitVec 32))
(declare-fun strlen_81_64 () (_ BitVec 64))
(declare-fun args_1_8 () (_ BitVec 8))
(declare-fun strncmp_ret_82_32 () (_ BitVec 32))
(declare-fun strlen_84_64 () (_ BitVec 64))
(declare-fun args_2_8 () (_ BitVec 8))
(declare-fun strncmp_ret_85_32 () (_ BitVec 32))
(declare-fun strlen_87_64 () (_ BitVec 64))
(declare-fun args_3_8 () (_ BitVec 8))
(declare-fun strncmp_ret_88_32 () (_ BitVec 32))
(declare-fun strlen_90_64 () (_ BitVec 64))
(declare-fun args_4_8 () (_ BitVec 8))
(declare-fun strncmp_ret_91_32 () (_ BitVec 32))
(declare-fun strlen_93_64 () (_ BitVec 64))
(declare-fun args_5_16 () (_ BitVec 16))
(declare-fun strncmp_ret_94_32 () (_ BitVec 32))
(declare-fun strlen_99_64 () (_ BitVec 64))
(declare-fun args_6_16 () (_ BitVec 16))
(declare-fun strncmp_ret_100_32 () (_ BitVec 32))
(declare-fun strlen_105_64 () (_ BitVec 64))
(declare-fun args_7_16 () (_ BitVec 16))
(declare-fun strncmp_ret_106_32 () (_ BitVec 32))
(declare-fun strlen_111_64 () (_ BitVec 64))
(declare-fun args_8_16 () (_ BitVec 16))
(declare-fun strncmp_ret_112_32 () (_ BitVec 32))
(declare-fun strlen_117_64 () (_ BitVec 64))
(declare-fun args_9_16 () (_ BitVec 16))
(declare-fun strncmp_ret_118_32 () (_ BitVec 32))
(declare-fun strlen_123_64 () (_ BitVec 64))
(declare-fun args_10_32 () (_ BitVec 32))
(declare-fun strncmp_ret_124_32 () (_ BitVec 32))
(declare-fun strlen_129_64 () (_ BitVec 64))
(declare-fun args_11_32 () (_ BitVec 32))
(declare-fun strncmp_ret_130_32 () (_ BitVec 32))
(declare-fun strlen_135_64 () (_ BitVec 64))
(declare-fun args_12_32 () (_ BitVec 32))
(declare-fun strncmp_ret_136_32 () (_ BitVec 32))
(declare-fun strlen_141_64 () (_ BitVec 64))
(declare-fun args_13_32 () (_ BitVec 32))
(declare-fun strncmp_ret_142_32 () (_ BitVec 32))
(declare-fun strlen_147_64 () (_ BitVec 64))
(declare-fun args_14_32 () (_ BitVec 32))
(declare-fun strncmp_ret_148_32 () (_ BitVec 32))
(declare-fun strlen_157_64 () (_ BitVec 64))
(declare-fun args_15_64 () (_ BitVec 64))
(declare-fun strncmp_ret_158_32 () (_ BitVec 32))
(declare-fun args_16_64 () (_ BitVec 64))
(declare-fun strlen_171_64 () (_ BitVec 64))
(declare-fun strncmp_ret_172_32 () (_ BitVec 32))
(declare-fun args_17_64 () (_ BitVec 64))
(declare-fun num_bytes_180_64 () (_ BitVec 64))
(declare-fun num_bytes_179_64 () (_ BitVec 64))
(declare-fun num_bytes_181_64 () (_ BitVec 64))
(declare-fun strlen_288_64 () (_ BitVec 64))
(declare-fun strncmp_ret_289_32 () (_ BitVec 32))
(assert
 (let ((?x17248 (bvadd (_ bv576460752303357824 64) strlen_260_64)))
 (let (($x69 (= (_ bv0 8) args_0_8)))
 (let ((?x46 (ite $x69 (_ bv576460752303357824 64) (_ bv576460752303357825 64))))
 (= ?x46 ?x17248)))))
(assert
 (let ((?x101 (bvadd (_ bv576460752303357824 64) strlen_78_64)))
 (let (($x69 (= (_ bv0 8) args_0_8)))
 (let ((?x46 (ite $x69 (_ bv576460752303357824 64) (_ bv576460752303357825 64))))
 (= ?x46 ?x101)))))
(assert
 (= (_ bv1 32) strncmp_ret_261_32))
(assert
 (let (($x104 (bvule (_ bv2 64) strlen_78_64)))
 (let (($x48 (= (_ bv2 64) strlen_78_64)))
 (let (($x175 (or $x48 $x104)))
 (let (($x176 (not $x175)))
 (let (($x57 (= (_ bv45 8) args_0_8)))
 (let (($x174 (not $x57)))
 (or $x174 $x176))))))))
(assert
 (= (_ bv1 32) strncmp_ret_79_32))
(assert
 (let ((?x158 (bvadd (_ bv576460752303357826 64) strlen_81_64)))
 (let (($x121 (= (_ bv0 8) args_1_8)))
 (let ((?x123 (ite $x121 (_ bv576460752303357826 64) (_ bv576460752303357827 64))))
 (= ?x123 ?x158)))))
(assert
 (let (($x161 (bvule (_ bv2 64) strlen_81_64)))
 (let (($x136 (= (_ bv2 64) strlen_81_64)))
 (let (($x129 (or $x136 $x161)))
 (let (($x130 (not $x129)))
 (let (($x142 (= (_ bv45 8) args_1_8)))
 (let (($x204 (not $x142)))
 (or $x204 $x130))))))))
(assert
 (= (_ bv1 32) strncmp_ret_82_32))
(assert
 (let ((?x764 (bvadd (_ bv576460752303357828 64) strlen_84_64)))
 (let (($x191 (= (_ bv0 8) args_2_8)))
 (let ((?x189 (ite $x191 (_ bv576460752303357828 64) (_ bv576460752303357829 64))))
 (= ?x189 ?x764)))))
(assert
 (let (($x767 (bvule (_ bv2 64) strlen_84_64)))
 (let (($x746 (= (_ bv2 64) strlen_84_64)))
 (let (($x169 (or $x746 $x767)))
 (let (($x167 (not $x169)))
 (let (($x747 (= (_ bv45 8) args_2_8)))
 (let (($x131 (not $x747)))
 (or $x131 $x167))))))))
(assert
 (= (_ bv1 32) strncmp_ret_85_32))
(assert
 (let ((?x616 (bvadd (_ bv576460752303357830 64) strlen_87_64)))
 (let (($x96 (= (_ bv0 8) args_3_8)))
 (let ((?x157 (ite $x96 (_ bv576460752303357830 64) (_ bv576460752303357831 64))))
 (= ?x157 ?x616)))))
(assert
 (let (($x281 (bvule (_ bv2 64) strlen_87_64)))
 (let (($x165 (= (_ bv2 64) strlen_87_64)))
 (let (($x234 (or $x165 $x281)))
 (let (($x233 (not $x234)))
 (let (($x134 (= (_ bv45 8) args_3_8)))
 (let (($x561 (not $x134)))
 (or $x561 $x233))))))))
(assert
 (= (_ bv1 32) strncmp_ret_88_32))
(assert
 (let ((?x729 (bvadd (_ bv576460752303357832 64) strlen_90_64)))
 (let (($x268 (= (_ bv0 8) args_4_8)))
 (let ((?x342 (ite $x268 (_ bv576460752303357832 64) (_ bv576460752303357833 64))))
 (= ?x342 ?x729)))))
(assert
 (let (($x97 (bvule (_ bv2 64) strlen_90_64)))
 (let (($x609 (= (_ bv2 64) strlen_90_64)))
 (let (($x815 (or $x609 $x97)))
 (let (($x852 (not $x815)))
 (let (($x357 (= (_ bv45 8) args_4_8)))
 (let (($x812 (not $x357)))
 (or $x812 $x852))))))))
(assert
 (= (_ bv1 32) strncmp_ret_91_32))
(assert
 (let ((?x589 (bvadd (_ bv576460752303357834 64) strlen_93_64)))
 (let ((?x273 ((_ extract 7 0) args_5_16)))
 (let (($x258 (= (_ bv0 8) ?x273)))
 (let ((?x446 (ite $x258 (_ bv576460752303357835 64) (_ bv576460752303357836 64))))
 (let ((?x242 ((_ extract 15 8) args_5_16)))
 (let (($x322 (= (_ bv0 8) ?x242)))
 (let ((?x414 (ite $x322 (_ bv576460752303357834 64) ?x446)))
 (= ?x414 ?x589)))))))))
(assert
 (let (($x619 (bvule (_ bv2 64) strlen_93_64)))
 (let (($x221 (= (_ bv2 64) strlen_93_64)))
 (let (($x1182 (or $x221 $x619)))
 (let (($x1181 (not $x1182)))
 (let ((?x242 ((_ extract 15 8) args_5_16)))
 (let (($x571 (= (_ bv45 8) ?x242)))
 (let (($x1183 (not $x571)))
 (let (($x600 (bvule (_ bv1 64) strlen_93_64)))
 (let (($x614 (not $x600)))
 (let ((?x273 ((_ extract 7 0) args_5_16)))
 (let (($x455 (= (_ bv105 8) ?x273)))
 (let (($x366 (or $x455 $x614)))
 (let (($x1192 (not $x366)))
 (or $x1192 $x1183 $x1181)))))))))))))))
(assert
 (= (_ bv1 32) strncmp_ret_94_32))
(assert
 (let ((?x702 (bvadd (_ bv576460752303357837 64) strlen_99_64)))
 (let ((?x779 ((_ extract 7 0) args_6_16)))
 (let (($x1191 (= (_ bv0 8) ?x779)))
 (let ((?x1221 (ite $x1191 (_ bv576460752303357838 64) (_ bv576460752303357839 64))))
 (let ((?x182 ((_ extract 15 8) args_6_16)))
 (let (($x369 (= (_ bv0 8) ?x182)))
 (let ((?x1222 (ite $x369 (_ bv576460752303357837 64) ?x1221)))
 (= ?x1222 ?x702)))))))))
(assert
 (let (($x278 (bvule (_ bv2 64) strlen_99_64)))
 (let (($x1226 (= (_ bv2 64) strlen_99_64)))
 (let (($x1634 (or $x1226 $x278)))
 (let (($x1633 (not $x1634)))
 (let ((?x182 ((_ extract 15 8) args_6_16)))
 (let (($x294 (= (_ bv45 8) ?x182)))
 (let (($x1635 (not $x294)))
 (let (($x708 (bvule (_ bv1 64) strlen_99_64)))
 (let (($x709 (not $x708)))
 (let ((?x779 ((_ extract 7 0) args_6_16)))
 (let (($x1231 (= (_ bv105 8) ?x779)))
 (let (($x1735 (or $x1231 $x709)))
 (let (($x1644 (not $x1735)))
 (or $x1644 $x1635 $x1633)))))))))))))))
(assert
 (= (_ bv1 32) strncmp_ret_100_32))
(assert
 (let ((?x1818 (bvadd (_ bv576460752303357840 64) strlen_105_64)))
 (let ((?x1558 ((_ extract 7 0) args_7_16)))
 (let (($x1643 (= (_ bv0 8) ?x1558)))
 (let ((?x1652 (ite $x1643 (_ bv576460752303357841 64) (_ bv576460752303357842 64))))
 (let ((?x1387 ((_ extract 15 8) args_7_16)))
 (let (($x1480 (= (_ bv0 8) ?x1387)))
 (let ((?x1653 (ite $x1480 (_ bv576460752303357840 64) ?x1652)))
 (= ?x1653 ?x1818)))))))))
(assert
 (let (($x1821 (bvule (_ bv2 64) strlen_105_64)))
 (let (($x1665 (= (_ bv2 64) strlen_105_64)))
 (let (($x2359 (or $x1665 $x1821)))
 (let (($x2358 (not $x2359)))
 (let ((?x1387 ((_ extract 15 8) args_7_16)))
 (let (($x1373 (= (_ bv45 8) ?x1387)))
 (let (($x2360 (not $x1373)))
 (let (($x1826 (bvule (_ bv1 64) strlen_105_64)))
 (let (($x1827 (not $x1826)))
 (let ((?x1558 ((_ extract 7 0) args_7_16)))
 (let (($x1670 (= (_ bv105 8) ?x1558)))
 (let (($x2027 (or $x1670 $x1827)))
 (let (($x2371 (not $x2027)))
 (or $x2371 $x2360 $x2358)))))))))))))))
(assert
 (= (_ bv1 32) strncmp_ret_106_32))
(assert
 (let ((?x2284 (bvadd (_ bv576460752303357843 64) strlen_111_64)))
 (let ((?x1852 ((_ extract 7 0) args_8_16)))
 (let (($x2370 (= (_ bv0 8) ?x1852)))
 (let ((?x2404 (ite $x2370 (_ bv576460752303357844 64) (_ bv576460752303357845 64))))
 (let ((?x2032 ((_ extract 15 8) args_8_16)))
 (let (($x1997 (= (_ bv0 8) ?x2032)))
 (let ((?x2405 (ite $x1997 (_ bv576460752303357843 64) ?x2404)))
 (= ?x2405 ?x2284)))))))))
(assert
 (let (($x2287 (bvule (_ bv2 64) strlen_111_64)))
 (let (($x2409 (= (_ bv2 64) strlen_111_64)))
 (let (($x3118 (or $x2409 $x2287)))
 (let (($x3117 (not $x3118)))
 (let ((?x2032 ((_ extract 15 8) args_8_16)))
 (let (($x1851 (= (_ bv45 8) ?x2032)))
 (let (($x3119 (not $x1851)))
 (let (($x2292 (bvule (_ bv1 64) strlen_111_64)))
 (let (($x2293 (not $x2292)))
 (let ((?x1852 ((_ extract 7 0) args_8_16)))
 (let (($x2414 (= (_ bv105 8) ?x1852)))
 (let (($x2522 (or $x2414 $x2293)))
 (let (($x3130 (not $x2522)))
 (or $x3130 $x3119 $x3117)))))))))))))))
(assert
 (= (_ bv1 32) strncmp_ret_112_32))
(assert
 (let ((?x3168 (bvadd (_ bv576460752303357846 64) strlen_117_64)))
 (let ((?x2852 ((_ extract 7 0) args_9_16)))
 (let (($x3129 (= (_ bv0 8) ?x2852)))
 (let ((?x3112 (ite $x3129 (_ bv576460752303357847 64) (_ bv576460752303357848 64))))
 (let ((?x2821 ((_ extract 15 8) args_9_16)))
 (let (($x3121 (= (_ bv0 8) ?x2821)))
 (let ((?x3111 (ite $x3121 (_ bv576460752303357846 64) ?x3112)))
 (= ?x3111 ?x3168)))))))))
(assert
 (let (($x3171 (bvule (_ bv2 64) strlen_117_64)))
 (let (($x3124 (= (_ bv2 64) strlen_117_64)))
 (let (($x4010 (or $x3124 $x3171)))
 (let (($x4011 (not $x4010)))
 (let ((?x2821 ((_ extract 15 8) args_9_16)))
 (let (($x2847 (= (_ bv45 8) ?x2821)))
 (let (($x4009 (not $x2847)))
 (let (($x3176 (bvule (_ bv1 64) strlen_117_64)))
 (let (($x3177 (not $x3176)))
 (let ((?x2852 ((_ extract 7 0) args_9_16)))
 (let (($x2583 (= (_ bv105 8) ?x2852)))
 (let (($x4007 (or $x2583 $x3177)))
 (let (($x4008 (not $x4007)))
 (or $x4008 $x4009 $x4011)))))))))))))))
(assert
 (= (_ bv1 32) strncmp_ret_118_32))
(assert
 (let ((?x3990 (bvadd (_ bv576460752303357849 64) strlen_123_64)))
 (let ((?x3092 ((_ extract 7 0) args_10_32)))
 (let (($x3393 (= (_ bv0 8) ?x3092)))
 (let ((?x3961 (ite $x3393 (_ bv576460752303357852 64) (_ bv576460752303357853 64))))
 (let ((?x3366 ((_ extract 15 8) args_10_32)))
 (let (($x3331 (= (_ bv0 8) ?x3366)))
 (let ((?x3960 (ite $x3331 (_ bv576460752303357851 64) ?x3961)))
 (let ((?x3358 ((_ extract 23 16) args_10_32)))
 (let (($x3984 (= (_ bv0 8) ?x3358)))
 (let ((?x3959 (ite $x3984 (_ bv576460752303357850 64) ?x3960)))
 (let ((?x3316 ((_ extract 31 24) args_10_32)))
 (let (($x3318 (= (_ bv0 8) ?x3316)))
 (let ((?x3958 (ite $x3318 (_ bv576460752303357849 64) ?x3959)))
 (= ?x3958 ?x3990)))))))))))))))
(assert
 (let ((?x3316 ((_ extract 31 24) args_10_32)))
 (let (($x3302 (= (_ bv45 8) ?x3316)))
 (let (($x4328 (not $x3302)))
 (let (($x3605 (= (_ bv2 64) strlen_123_64)))
 (let (($x4280 (not $x3605)))
 (let (($x3996 (bvule (_ bv1 64) strlen_123_64)))
 (let (($x3997 (not $x3996)))
 (let ((?x3358 ((_ extract 23 16) args_10_32)))
 (let (($x3963 (= (_ bv105 8) ?x3358)))
 (let (($x4474 (or $x3963 $x3997)))
 (let (($x4477 (not $x4474)))
 (or $x4477 $x4280 $x4328)))))))))))))
(assert
 (= (_ bv1 32) strncmp_ret_124_32))
(assert
 (let ((?x4754 (bvadd (_ bv576460752303357854 64) strlen_129_64)))
 (let ((?x4132 ((_ extract 7 0) args_11_32)))
 (let (($x3889 (= (_ bv0 8) ?x4132)))
 (let ((?x1118 (ite $x3889 (_ bv576460752303357857 64) (_ bv576460752303357858 64))))
 (let ((?x4320 ((_ extract 15 8) args_11_32)))
 (let (($x4329 (= (_ bv0 8) ?x4320)))
 (let ((?x2993 (ite $x4329 (_ bv576460752303357856 64) ?x1118)))
 (let ((?x3930 ((_ extract 23 16) args_11_32)))
 (let (($x4473 (= (_ bv0 8) ?x3930)))
 (let ((?x2992 (ite $x4473 (_ bv576460752303357855 64) ?x2993)))
 (let ((?x3738 ((_ extract 31 24) args_11_32)))
 (let (($x3872 (= (_ bv0 8) ?x3738)))
 (let ((?x3164 (ite $x3872 (_ bv576460752303357854 64) ?x2992)))
 (= ?x3164 ?x4754)))))))))))))))
(assert
 (let ((?x3738 ((_ extract 31 24) args_11_32)))
 (let (($x3860 (= (_ bv45 8) ?x3738)))
 (let (($x5387 (not $x3860)))
 (let (($x901 (= (_ bv2 64) strlen_129_64)))
 (let (($x5266 (not $x901)))
 (let (($x4760 (bvule (_ bv1 64) strlen_129_64)))
 (let (($x4761 (not $x4760)))
 (let ((?x3930 ((_ extract 23 16) args_11_32)))
 (let (($x1246 (= (_ bv105 8) ?x3930)))
 (let (($x5264 (or $x1246 $x4761)))
 (let (($x5265 (not $x5264)))
 (or $x5265 $x5266 $x5387)))))))))))))
(assert
 (= (_ bv1 32) strncmp_ret_130_32))
(assert
 (let ((?x5432 (bvadd (_ bv576460752303357859 64) strlen_135_64)))
 (let ((?x4643 ((_ extract 7 0) args_12_32)))
 (let (($x4664 (= (_ bv0 8) ?x4643)))
 (let ((?x4502 (ite $x4664 (_ bv576460752303357862 64) (_ bv576460752303357863 64))))
 (let ((?x4615 ((_ extract 15 8) args_12_32)))
 (let (($x5052 (= (_ bv0 8) ?x4615)))
 (let ((?x5315 (ite $x5052 (_ bv576460752303357861 64) ?x4502)))
 (let ((?x4639 ((_ extract 23 16) args_12_32)))
 (let (($x5295 (= (_ bv0 8) ?x4639)))
 (let ((?x5054 (ite $x5295 (_ bv576460752303357860 64) ?x5315)))
 (let ((?x4500 ((_ extract 31 24) args_12_32)))
 (let (($x4659 (= (_ bv0 8) ?x4500)))
 (let ((?x5316 (ite $x4659 (_ bv576460752303357859 64) ?x5054)))
 (= ?x5316 ?x5432)))))))))))))))
(assert
 (let ((?x4500 ((_ extract 31 24) args_12_32)))
 (let (($x4877 (= (_ bv45 8) ?x4500)))
 (let (($x5808 (not $x4877)))
 (let (($x5320 (= (_ bv2 64) strlen_135_64)))
 (let (($x5287 (not $x5320)))
 (let ((?x4639 ((_ extract 23 16) args_12_32)))
 (let (($x5100 (= (_ bv105 8) ?x4639)))
 (let (($x5334 (bvule (_ bv1 64) strlen_135_64)))
 (let (($x5333 (not $x5334)))
 (let (($x5977 (or $x5333 $x5100)))
 (let (($x6014 (not $x5977)))
 (or $x6014 $x5287 $x5808)))))))))))))
(assert
 (= (_ bv1 32) strncmp_ret_136_32))
(assert
 (let ((?x6051 (bvadd (_ bv576460752303357864 64) strlen_141_64)))
 (let ((?x5193 ((_ extract 7 0) args_13_32)))
 (let (($x5810 (= (_ bv0 8) ?x5193)))
 (let ((?x5941 (ite $x5810 (_ bv576460752303357867 64) (_ bv576460752303357868 64))))
 (let ((?x5752 ((_ extract 15 8) args_13_32)))
 (let (($x5809 (= (_ bv0 8) ?x5752)))
 (let ((?x5940 (ite $x5809 (_ bv576460752303357866 64) ?x5941)))
 (let ((?x5879 ((_ extract 23 16) args_13_32)))
 (let (($x5976 (= (_ bv0 8) ?x5879)))
 (let ((?x5939 (ite $x5976 (_ bv576460752303357865 64) ?x5940)))
 (let ((?x5380 ((_ extract 31 24) args_13_32)))
 (let (($x5374 (= (_ bv0 8) ?x5380)))
 (let ((?x5938 (ite $x5374 (_ bv576460752303357864 64) ?x5939)))
 (= ?x5938 ?x6051)))))))))))))))
(assert
 (let ((?x5380 ((_ extract 31 24) args_13_32)))
 (let (($x5591 (= (_ bv45 8) ?x5380)))
 (let (($x6417 (not $x5591)))
 (let (($x5958 (= (_ bv2 64) strlen_141_64)))
 (let (($x6252 (not $x5958)))
 (let (($x6057 (bvule (_ bv1 64) strlen_141_64)))
 (let (($x6058 (not $x6057)))
 (let ((?x5879 ((_ extract 23 16) args_13_32)))
 (let (($x5961 (= (_ bv105 8) ?x5879)))
 (let (($x6995 (or $x5961 $x6058)))
 (let (($x6998 (not $x6995)))
 (or $x6998 $x6252 $x6417)))))))))))))
(assert
 (= (_ bv1 32) strncmp_ret_142_32))
(assert
 (let ((?x6795 (bvadd (_ bv576460752303357869 64) strlen_147_64)))
 (let ((?x6356 ((_ extract 7 0) args_14_32)))
 (let (($x6416 (= (_ bv0 8) ?x6356)))
 (let ((?x6969 (ite $x6416 (_ bv576460752303357872 64) (_ bv576460752303357873 64))))
 (let ((?x6433 ((_ extract 15 8) args_14_32)))
 (let (($x6523 (= (_ bv0 8) ?x6433)))
 (let ((?x6966 (ite $x6523 (_ bv576460752303357871 64) ?x6969)))
 (let ((?x5337 ((_ extract 23 16) args_14_32)))
 (let (($x6994 (= (_ bv0 8) ?x5337)))
 (let ((?x6965 (ite $x6994 (_ bv576460752303357870 64) ?x6966)))
 (let ((?x6270 ((_ extract 31 24) args_14_32)))
 (let (($x5985 (= (_ bv0 8) ?x6270)))
 (let ((?x6964 (ite $x5985 (_ bv576460752303357869 64) ?x6965)))
 (= ?x6964 ?x6795)))))))))))))))
(assert
 (let ((?x6270 ((_ extract 31 24) args_14_32)))
 (let (($x5368 (= (_ bv45 8) ?x6270)))
 (let (($x8173 (not $x5368)))
 (let (($x6977 (= (_ bv2 64) strlen_147_64)))
 (let (($x8166 (not $x6977)))
 (let (($x6801 (bvule (_ bv1 64) strlen_147_64)))
 (let (($x6802 (not $x6801)))
 (let ((?x5337 ((_ extract 23 16) args_14_32)))
 (let (($x6980 (= (_ bv105 8) ?x5337)))
 (let (($x1494 (or $x6980 $x6802)))
 (let (($x1513 (not $x1494)))
 (or $x1513 $x8166 $x8173)))))))))))))
(assert
 (= (_ bv1 32) strncmp_ret_148_32))
(assert
 (let ((?x1475 (bvadd (_ bv576460752303357874 64) strlen_157_64)))
 (let ((?x7178 ((_ extract 7 0) args_15_64)))
 (let (($x922 (= (_ bv0 8) ?x7178)))
 (let ((?x1100 (ite $x922 (_ bv576460752303357881 64) (_ bv576460752303357882 64))))
 (let ((?x7587 ((_ extract 15 8) args_15_64)))
 (let (($x8179 (= (_ bv0 8) ?x7587)))
 (let ((?x931 (ite $x8179 (_ bv576460752303357880 64) ?x1100)))
 (let ((?x6954 ((_ extract 23 16) args_15_64)))
 (let (($x8128 (= (_ bv0 8) ?x6954)))
 (let ((?x1267 (ite $x8128 (_ bv576460752303357879 64) ?x931)))
 (let ((?x7233 ((_ extract 31 24) args_15_64)))
 (let (($x8118 (= (_ bv0 8) ?x7233)))
 (let ((?x1716 (ite $x8118 (_ bv576460752303357878 64) ?x1267)))
 (let ((?x7510 ((_ extract 39 32) args_15_64)))
 (let (($x8099 (= (_ bv0 8) ?x7510)))
 (let ((?x1719 (ite $x8099 (_ bv576460752303357877 64) ?x1716)))
 (let ((?x6919 ((_ extract 47 40) args_15_64)))
 (let (($x8150 (= (_ bv0 8) ?x6919)))
 (let ((?x1712 (ite $x8150 (_ bv576460752303357876 64) ?x1719)))
 (let ((?x7152 ((_ extract 55 48) args_15_64)))
 (let (($x8149 (= (_ bv0 8) ?x7152)))
 (let ((?x1124 (ite $x8149 (_ bv576460752303357875 64) ?x1712)))
 (let ((?x7096 ((_ extract 63 56) args_15_64)))
 (let (($x7284 (= (_ bv0 8) ?x7096)))
 (let ((?x1107 (ite $x7284 (_ bv576460752303357874 64) ?x1124)))
 (= ?x1107 ?x1475)))))))))))))))))))))))))))
(assert
 (let ((?x7096 ((_ extract 63 56) args_15_64)))
 (let (($x7318 (= (_ bv45 8) ?x7096)))
 (let (($x2531 (not $x7318)))
 (let (($x1566 (= (_ bv2 64) strlen_157_64)))
 (let (($x9872 (not $x1566)))
 (let (($x7286 (bvule (_ bv1 64) strlen_157_64)))
 (let (($x7285 (not $x7286)))
 (let ((?x7152 ((_ extract 55 48) args_15_64)))
 (let (($x1326 (= (_ bv105 8) ?x7152)))
 (let (($x9479 (or $x1326 $x7285)))
 (let (($x9491 (not $x9479)))
 (or $x9491 $x9872 $x2531)))))))))))))
(assert
 (= (_ bv1 32) strncmp_ret_158_32))
(assert
 (let ((?x2108 ((_ extract 47 40) args_16_64)))
 (= (_ bv0 8) ?x2108)))
(assert
 (let ((?x9051 ((_ extract 63 56) args_16_64)))
 (= (_ bv45 8) ?x9051)))
(assert
 (let ((?x2170 ((_ extract 55 48) args_16_64)))
 (= (_ bv105 8) ?x2170)))
(assert
 (= (_ bv2 64) strlen_171_64))
(assert
 (= (_ bv0 32) strncmp_ret_172_32))
(assert
 (let ((?x10244 ((_ extract 55 54) args_17_64)))
 (let (($x9889 (= (_ bv0 2) ?x10244)))
 (let (($x15403 (not $x9889)))
 (let ((?x3666 ((_ extract 55 48) args_17_64)))
 (let (($x10186 (bvule (_ bv48 8) ?x3666)))
 (let (($x2882 (not $x10186)))
 (let ((?x10176 ((_ extract 53 48) args_17_64)))
 (let (($x10168 (bvule ?x10176 (_ bv57 6))))
 (let (($x2399 (not $x10168)))
 (let (($x15360 (or $x2399 $x2882 $x15403)))
 (let (($x10156 (= (_ bv1 64) num_bytes_180_64)))
 (let (($x13102 (not $x10156)))
 (let ((?x10600 ((_ extract 47 46) args_17_64)))
 (let (($x15364 (= (_ bv0 2) ?x10600)))
 (let (($x15226 (not $x15364)))
 (let ((?x3490 ((_ extract 47 40) args_17_64)))
 (let (($x10599 (bvule (_ bv48 8) ?x3490)))
 (let (($x2862 (not $x10599)))
 (let ((?x10614 ((_ extract 45 40) args_17_64)))
 (let (($x10764 (bvule ?x10614 (_ bv57 6))))
 (let (($x2492 (not $x10764)))
 (let (($x15355 (or $x2492 $x2862 $x15226)))
 (let (($x14240 (not $x15355)))
 (let (($x3827 (or $x14240 $x13102 $x15360)))
 (let (($x11999 (not $x3827)))
 (let (($x5641 (not $x15360)))
 (let (($x2758 (= (_ bv0 64) num_bytes_180_64)))
 (let (($x12190 (not $x2758)))
 (let (($x14627 (or $x12190 $x5641)))
 (let (($x12576 (not $x14627)))
 (let (($x15216 (or $x15360 $x15355)))
 (let (($x3441 (= (_ bv2 64) num_bytes_180_64)))
 (let (($x14614 (not $x3441)))
 (let ((?x10487 ((_ extract 39 38) args_17_64)))
 (let (($x8952 (= (_ bv0 2) ?x10487)))
 (let (($x13391 (not $x8952)))
 (let ((?x10512 ((_ extract 39 32) args_17_64)))
 (let (($x10513 (bvule (_ bv48 8) ?x10512)))
 (let (($x2873 (not $x10513)))
 (let ((?x10534 ((_ extract 37 32) args_17_64)))
 (let (($x10302 (bvule ?x10534 (_ bv57 6))))
 (let (($x2892 (not $x10302)))
 (let (($x15369 (or $x2892 $x2873 $x13391)))
 (let (($x14715 (not $x15369)))
 (let (($x14767 (or $x14715 $x14614 $x15216)))
 (let (($x12242 (not $x14767)))
 (let (($x2730 (or $x15369 $x15216)))
 (let (($x10118 (= (_ bv3 64) num_bytes_180_64)))
 (let (($x14477 (not $x10118)))
 (let ((?x10768 ((_ extract 31 30) args_17_64)))
 (let (($x15221 (= (_ bv0 2) ?x10768)))
 (let (($x14597 (not $x15221)))
 (let ((?x10073 ((_ extract 31 24) args_17_64)))
 (let (($x10355 (bvule (_ bv48 8) ?x10073)))
 (let (($x2657 (not $x10355)))
 (let ((?x10743 ((_ extract 29 24) args_17_64)))
 (let (($x10162 (bvule ?x10743 (_ bv57 6))))
 (let (($x3046 (not $x10162)))
 (let (($x15228 (or $x3046 $x2657 $x14597)))
 (let (($x13017 (not $x15228)))
 (let (($x14491 (or $x13017 $x14477 $x2730)))
 (let (($x12141 (not $x14491)))
 (let (($x15390 (or $x15228 $x2730)))
 (let (($x3515 (= (_ bv4 64) num_bytes_180_64)))
 (let (($x14228 (not $x3515)))
 (let ((?x10233 ((_ extract 23 22) args_17_64)))
 (let (($x15371 (= (_ bv0 2) ?x10233)))
 (let (($x15389 (not $x15371)))
 (let ((?x10292 ((_ extract 23 16) args_17_64)))
 (let (($x10483 (bvule (_ bv48 8) ?x10292)))
 (let (($x2506 (not $x10483)))
 (let ((?x10485 ((_ extract 21 16) args_17_64)))
 (let (($x2933 (bvule ?x10485 (_ bv57 6))))
 (let (($x2867 (not $x2933)))
 (let (($x15392 (or $x2867 $x2506 $x15389)))
 (let (($x14387 (not $x15392)))
 (let (($x14574 (or $x14387 $x14228 $x15390)))
 (let (($x3844 (not $x14574)))
 (let (($x15210 (or $x15392 $x15390)))
 (let (($x3519 (= (_ bv5 64) num_bytes_180_64)))
 (let (($x5365 (not $x3519)))
 (let ((?x3427 ((_ extract 15 14) args_17_64)))
 (let (($x15401 (= (_ bv0 2) ?x3427)))
 (let (($x15233 (not $x15401)))
 (let ((?x3453 ((_ extract 15 8) args_17_64)))
 (let (($x10632 (bvule (_ bv48 8) ?x3453)))
 (let (($x9483 (not $x10632)))
 (let ((?x10629 ((_ extract 13 8) args_17_64)))
 (let (($x10696 (bvule ?x10629 (_ bv57 6))))
 (let (($x10038 (not $x10696)))
 (let (($x15376 (or $x10038 $x9483 $x15233)))
 (let (($x12867 (not $x15376)))
 (let (($x13040 (or $x12867 $x5365 $x15210)))
 (let (($x12286 (not $x13040)))
 (let (($x15387 (or $x15376 $x15210)))
 (let (($x3527 (= (_ bv6 64) num_bytes_180_64)))
 (let (($x14196 (not $x3527)))
 (let ((?x10167 ((_ extract 7 6) args_17_64)))
 (let (($x4043 (= (_ bv0 2) ?x10167)))
 (let (($x14623 (not $x4043)))
 (let ((?x3308 ((_ extract 7 0) args_17_64)))
 (let (($x10775 (bvule (_ bv48 8) ?x3308)))
 (let (($x9514 (not $x10775)))
 (let ((?x10776 ((_ extract 5 0) args_17_64)))
 (let (($x10658 (bvule ?x10776 (_ bv57 6))))
 (let (($x2616 (not $x10658)))
 (let (($x14517 (or $x2616 $x9514 $x14623)))
 (let (($x15368 (not $x14517)))
 (let (($x14484 (or $x15368 $x14196 $x15387)))
 (let (($x14927 (not $x14484)))
 (let (($x13412 (or $x14517 $x15387)))
 (let (($x10638 (= (_ bv7 64) num_bytes_180_64)))
 (let (($x14588 (not $x10638)))
 (let (($x15380 (or $x14588 $x13412)))
 (let (($x15396 (not $x15380)))
 (or $x15396 $x14927 $x12286 $x3844 $x12141 $x12242 $x12576 $x11999)))))))))))))))))))))))))))))))))))))))))))))))))))))))))))))))))))))))))))))))))))))))))))))))))))))))))))))))))))))
(assert
 (let ((?x10244 ((_ extract 55 54) args_17_64)))
 (let (($x9889 (= (_ bv0 2) ?x10244)))
 (let (($x15403 (not $x9889)))
 (let ((?x3666 ((_ extract 55 48) args_17_64)))
 (let (($x10186 (bvule (_ bv48 8) ?x3666)))
 (let (($x2882 (not $x10186)))
 (let ((?x10176 ((_ extract 53 48) args_17_64)))
 (let (($x10168 (bvule ?x10176 (_ bv57 6))))
 (let (($x2399 (not $x10168)))
 (let (($x15360 (or $x2399 $x2882 $x15403)))
 (let (($x3072 (= (_ bv1 64) num_bytes_179_64)))
 (let (($x13116 (not $x3072)))
 (let ((?x10600 ((_ extract 47 46) args_17_64)))
 (let (($x15364 (= (_ bv0 2) ?x10600)))
 (let (($x15226 (not $x15364)))
 (let ((?x3490 ((_ extract 47 40) args_17_64)))
 (let (($x10599 (bvule (_ bv48 8) ?x3490)))
 (let (($x2862 (not $x10599)))
 (let ((?x10614 ((_ extract 45 40) args_17_64)))
 (let (($x10764 (bvule ?x10614 (_ bv57 6))))
 (let (($x2492 (not $x10764)))
 (let (($x15355 (or $x2492 $x2862 $x15226)))
 (let (($x14240 (not $x15355)))
 (let (($x12949 (or $x14240 $x13116 $x15360)))
 (let (($x12227 (not $x12949)))
 (let (($x5641 (not $x15360)))
 (let (($x3567 (= (_ bv0 64) num_bytes_179_64)))
 (let (($x4199 (not $x3567)))
 (let (($x3817 (or $x4199 $x5641)))
 (let (($x13056 (not $x3817)))
 (let (($x15216 (or $x15360 $x15355)))
 (let (($x10166 (= (_ bv2 64) num_bytes_179_64)))
 (let (($x12291 (not $x10166)))
 (let ((?x10487 ((_ extract 39 38) args_17_64)))
 (let (($x8952 (= (_ bv0 2) ?x10487)))
 (let (($x13391 (not $x8952)))
 (let ((?x10512 ((_ extract 39 32) args_17_64)))
 (let (($x10513 (bvule (_ bv48 8) ?x10512)))
 (let (($x2873 (not $x10513)))
 (let ((?x10534 ((_ extract 37 32) args_17_64)))
 (let (($x10302 (bvule ?x10534 (_ bv57 6))))
 (let (($x2892 (not $x10302)))
 (let (($x15369 (or $x2892 $x2873 $x13391)))
 (let (($x14715 (not $x15369)))
 (let (($x12103 (or $x14715 $x12291 $x15216)))
 (let (($x3840 (not $x12103)))
 (let (($x2730 (or $x15369 $x15216)))
 (let (($x10640 (= (_ bv3 64) num_bytes_179_64)))
 (let (($x11897 (not $x10640)))
 (let ((?x10768 ((_ extract 31 30) args_17_64)))
 (let (($x15221 (= (_ bv0 2) ?x10768)))
 (let (($x14597 (not $x15221)))
 (let ((?x10073 ((_ extract 31 24) args_17_64)))
 (let (($x10355 (bvule (_ bv48 8) ?x10073)))
 (let (($x2657 (not $x10355)))
 (let ((?x10743 ((_ extract 29 24) args_17_64)))
 (let (($x10162 (bvule ?x10743 (_ bv57 6))))
 (let (($x3046 (not $x10162)))
 (let (($x15228 (or $x3046 $x2657 $x14597)))
 (let (($x13017 (not $x15228)))
 (let (($x12339 (or $x13017 $x11897 $x2730)))
 (let (($x1420 (not $x12339)))
 (let (($x15390 (or $x15228 $x2730)))
 (let (($x2729 (= (_ bv4 64) num_bytes_179_64)))
 (let (($x12293 (not $x2729)))
 (let ((?x10233 ((_ extract 23 22) args_17_64)))
 (let (($x15371 (= (_ bv0 2) ?x10233)))
 (let (($x15389 (not $x15371)))
 (let ((?x10292 ((_ extract 23 16) args_17_64)))
 (let (($x10483 (bvule (_ bv48 8) ?x10292)))
 (let (($x2506 (not $x10483)))
 (let ((?x10485 ((_ extract 21 16) args_17_64)))
 (let (($x2933 (bvule ?x10485 (_ bv57 6))))
 (let (($x2867 (not $x2933)))
 (let (($x15392 (or $x2867 $x2506 $x15389)))
 (let (($x14387 (not $x15392)))
 (let (($x12299 (or $x14387 $x12293 $x15390)))
 (let (($x12254 (not $x12299)))
 (let (($x15210 (or $x15392 $x15390)))
 (let (($x3149 (= (_ bv5 64) num_bytes_179_64)))
 (let (($x14806 (not $x3149)))
 (let ((?x3427 ((_ extract 15 14) args_17_64)))
 (let (($x15401 (= (_ bv0 2) ?x3427)))
 (let (($x15233 (not $x15401)))
 (let ((?x3453 ((_ extract 15 8) args_17_64)))
 (let (($x10632 (bvule (_ bv48 8) ?x3453)))
 (let (($x9483 (not $x10632)))
 (let ((?x10629 ((_ extract 13 8) args_17_64)))
 (let (($x10696 (bvule ?x10629 (_ bv57 6))))
 (let (($x10038 (not $x10696)))
 (let (($x15376 (or $x10038 $x9483 $x15233)))
 (let (($x12867 (not $x15376)))
 (let (($x12366 (or $x12867 $x14806 $x15210)))
 (let (($x11088 (not $x12366)))
 (let (($x15387 (or $x15376 $x15210)))
 (let (($x10400 (= (_ bv6 64) num_bytes_179_64)))
 (let (($x14201 (not $x10400)))
 (let ((?x10167 ((_ extract 7 6) args_17_64)))
 (let (($x4043 (= (_ bv0 2) ?x10167)))
 (let (($x14623 (not $x4043)))
 (let ((?x3308 ((_ extract 7 0) args_17_64)))
 (let (($x10775 (bvule (_ bv48 8) ?x3308)))
 (let (($x9514 (not $x10775)))
 (let ((?x10776 ((_ extract 5 0) args_17_64)))
 (let (($x10658 (bvule ?x10776 (_ bv57 6))))
 (let (($x2616 (not $x10658)))
 (let (($x14517 (or $x2616 $x9514 $x14623)))
 (let (($x15368 (not $x14517)))
 (let (($x14348 (or $x15368 $x14201 $x15387)))
 (let (($x13022 (not $x14348)))
 (let (($x13412 (or $x14517 $x15387)))
 (let (($x3155 (= (_ bv7 64) num_bytes_179_64)))
 (let (($x14246 (not $x3155)))
 (let (($x14685 (or $x14246 $x13412)))
 (let (($x12002 (not $x14685)))
 (or $x12002 $x13022 $x11088 $x12254 $x1420 $x3840 $x13056 $x12227)))))))))))))))))))))))))))))))))))))))))))))))))))))))))))))))))))))))))))))))))))))))))))))))))))))))))))))))))))))
(assert
 (let ((?x10143 ((_ extract 63 62) args_17_64)))
 (let (($x4152 (= (_ bv0 2) ?x10143)))
 (let (($x15097 (not $x4152)))
 (let ((?x2965 ((_ extract 63 56) args_17_64)))
 (let (($x10712 (bvule (_ bv48 8) ?x2965)))
 (let (($x9984 (not $x10712)))
 (let ((?x10229 ((_ extract 61 56) args_17_64)))
 (let (($x3489 (bvule ?x10229 (_ bv57 6))))
 (let (($x9986 (not $x3489)))
 (let (($x15095 (or $x9986 $x9984 $x15097)))
 (let (($x3266 (= (_ bv1 64) num_bytes_181_64)))
 (let (($x3749 (not $x3266)))
 (let ((?x10244 ((_ extract 55 54) args_17_64)))
 (let (($x9889 (= (_ bv0 2) ?x10244)))
 (let (($x15403 (not $x9889)))
 (let ((?x3666 ((_ extract 55 48) args_17_64)))
 (let (($x10186 (bvule (_ bv48 8) ?x3666)))
 (let (($x2882 (not $x10186)))
 (let ((?x10176 ((_ extract 53 48) args_17_64)))
 (let (($x10168 (bvule ?x10176 (_ bv57 6))))
 (let (($x2399 (not $x10168)))
 (let (($x15360 (or $x2399 $x2882 $x15403)))
 (let (($x5641 (not $x15360)))
 (let (($x3831 (or $x5641 $x3749 $x15095)))
 (let (($x12085 (not $x3831)))
 (let (($x12214 (not $x15095)))
 (let (($x10264 (= (_ bv0 64) num_bytes_181_64)))
 (let (($x12157 (not $x10264)))
 (let (($x12292 (or $x12157 $x12214)))
 (let (($x13122 (not $x12292)))
 (let (($x10719 (= (_ bv2 64) num_bytes_181_64)))
 (let (($x10928 (not $x10719)))
 (let ((?x10600 ((_ extract 47 46) args_17_64)))
 (let (($x15364 (= (_ bv0 2) ?x10600)))
 (let (($x15226 (not $x15364)))
 (let ((?x3490 ((_ extract 47 40) args_17_64)))
 (let (($x10599 (bvule (_ bv48 8) ?x3490)))
 (let (($x2862 (not $x10599)))
 (let ((?x10614 ((_ extract 45 40) args_17_64)))
 (let (($x10764 (bvule ?x10614 (_ bv57 6))))
 (let (($x2492 (not $x10764)))
 (let (($x15355 (or $x2492 $x2862 $x15226)))
 (let (($x14240 (not $x15355)))
 (let (($x12095 (or $x14240 $x10928 $x9986 $x15097 $x9984 $x15360)))
 (let (($x13117 (not $x12095)))
 (let (($x15216 (or $x15360 $x15355)))
 (let (($x10699 (= (_ bv3 64) num_bytes_181_64)))
 (let (($x3794 (not $x10699)))
 (let ((?x10487 ((_ extract 39 38) args_17_64)))
 (let (($x8952 (= (_ bv0 2) ?x10487)))
 (let (($x13391 (not $x8952)))
 (let ((?x10512 ((_ extract 39 32) args_17_64)))
 (let (($x10513 (bvule (_ bv48 8) ?x10512)))
 (let (($x2873 (not $x10513)))
 (let ((?x10534 ((_ extract 37 32) args_17_64)))
 (let (($x10302 (bvule ?x10534 (_ bv57 6))))
 (let (($x2892 (not $x10302)))
 (let (($x15369 (or $x2892 $x2873 $x13391)))
 (let (($x14715 (not $x15369)))
 (let (($x12345 (or $x14715 $x3794 $x15095 $x15216)))
 (let (($x11972 (not $x12345)))
 (let (($x2730 (or $x15369 $x15216)))
 (let (($x10642 (= (_ bv4 64) num_bytes_181_64)))
 (let (($x4952 (not $x10642)))
 (let ((?x10768 ((_ extract 31 30) args_17_64)))
 (let (($x15221 (= (_ bv0 2) ?x10768)))
 (let (($x14597 (not $x15221)))
 (let ((?x10073 ((_ extract 31 24) args_17_64)))
 (let (($x10355 (bvule (_ bv48 8) ?x10073)))
 (let (($x2657 (not $x10355)))
 (let ((?x10743 ((_ extract 29 24) args_17_64)))
 (let (($x10162 (bvule ?x10743 (_ bv57 6))))
 (let (($x3046 (not $x10162)))
 (let (($x15228 (or $x3046 $x2657 $x14597)))
 (let (($x13017 (not $x15228)))
 (let (($x3763 (or $x13017 $x4952 $x15095 $x2730)))
 (let (($x13030 (not $x3763)))
 (let (($x15390 (or $x15228 $x2730)))
 (let (($x10645 (= (_ bv5 64) num_bytes_181_64)))
 (let (($x2474 (not $x10645)))
 (let ((?x10233 ((_ extract 23 22) args_17_64)))
 (let (($x15371 (= (_ bv0 2) ?x10233)))
 (let (($x15389 (not $x15371)))
 (let ((?x10292 ((_ extract 23 16) args_17_64)))
 (let (($x10483 (bvule (_ bv48 8) ?x10292)))
 (let (($x2506 (not $x10483)))
 (let ((?x10485 ((_ extract 21 16) args_17_64)))
 (let (($x2933 (bvule ?x10485 (_ bv57 6))))
 (let (($x2867 (not $x2933)))
 (let (($x15392 (or $x2867 $x2506 $x15389)))
 (let (($x14387 (not $x15392)))
 (let (($x12154 (or $x14387 $x2474 $x15095 $x15390)))
 (let (($x4270 (not $x12154)))
 (let (($x15210 (or $x15392 $x15390)))
 (let (($x10286 (= (_ bv6 64) num_bytes_181_64)))
 (let (($x14581 (not $x10286)))
 (let ((?x3427 ((_ extract 15 14) args_17_64)))
 (let (($x15401 (= (_ bv0 2) ?x3427)))
 (let (($x15233 (not $x15401)))
 (let ((?x3453 ((_ extract 15 8) args_17_64)))
 (let (($x10632 (bvule (_ bv48 8) ?x3453)))
 (let (($x9483 (not $x10632)))
 (let ((?x10629 ((_ extract 13 8) args_17_64)))
 (let (($x10696 (bvule ?x10629 (_ bv57 6))))
 (let (($x10038 (not $x10696)))
 (let (($x15376 (or $x10038 $x9483 $x15233)))
 (let (($x12867 (not $x15376)))
 (let (($x13393 (or $x12867 $x14581 $x15095 $x15210)))
 (let (($x15373 (not $x13393)))
 (let (($x15387 (or $x15376 $x15210)))
 (let (($x10281 (= (_ bv7 64) num_bytes_181_64)))
 (let (($x2629 (not $x10281)))
 (let ((?x10167 ((_ extract 7 6) args_17_64)))
 (let (($x4043 (= (_ bv0 2) ?x10167)))
 (let (($x14623 (not $x4043)))
 (let ((?x3308 ((_ extract 7 0) args_17_64)))
 (let (($x10775 (bvule (_ bv48 8) ?x3308)))
 (let (($x9514 (not $x10775)))
 (let ((?x10776 ((_ extract 5 0) args_17_64)))
 (let (($x10658 (bvule ?x10776 (_ bv57 6))))
 (let (($x2616 (not $x10658)))
 (let (($x14517 (or $x2616 $x9514 $x14623)))
 (let (($x15368 (not $x14517)))
 (let (($x15366 (or $x15368 $x2629 $x15095 $x15387)))
 (let (($x14912 (not $x15366)))
 (let (($x13412 (or $x14517 $x15387)))
 (let (($x10298 (= (_ bv8 64) num_bytes_181_64)))
 (let (($x11960 (not $x10298)))
 (let (($x8969 (or $x11960 $x15095 $x13412)))
 (let (($x2355 (not $x8969)))
 (or $x2355 $x14912 $x15373 $x4270 $x13030 $x11972 $x13117 $x13122 $x12085))))))))))))))))))))))))))))))))))))))))))))))))))))))))))))))))))))))))))))))))))))))))))))))))))))))))))))))))))))))))))))))))))))
(assert
 (let (($x121 (= (_ bv0 8) args_1_8)))
 (let ((?x123 (ite $x121 (_ bv576460752303357826 64) (_ bv576460752303357827 64))))
 (let ((?x124 (bvsub ?x123 (_ bv576460752303357826 64))))
 (= ?x124 strlen_288_64)))))
(assert
 (let (($x10774 (= (_ bv1 32) strncmp_ret_289_32)))
 (let (($x10680 (bvult strlen_288_64 (_ bv0 64))))
 (let (($x142 (= (_ bv45 8) args_1_8)))
 (let (($x10585 (or $x142 $x10680)))
 (let (($x3471 (bvuge strlen_288_64 (_ bv6 64))))
 (let (($x10652 (= (_ bv6 64) strlen_288_64)))
 (let (($x10283 (or $x10652 $x3471)))
 (let (($x10251 (and $x10283 $x10585)))
 (let (($x10783 (not $x10251)))
 (let (($x10524 (and $x10783 $x10774)))
 (let (($x10674 (= (_ bv0 32) strncmp_ret_289_32)))
 (let (($x10238 (and $x10283 $x10585 $x10674)))
 (or $x10238 $x10524))))))))))))))
(maximize args_9_16)
(minimize args_15_64)
(maximize strncmp_ret_82_32)
(maximize strncmp_ret_261_32)
(maximize strncmp_ret_94_32)
(maximize strlen_84_64)
(maximize strlen_81_64)
(minimize args_5_16)
(minimize strlen_90_64)
(minimize strncmp_ret_148_32)
(minimize strncmp_ret_100_32)
(maximize args_16_64)
(maximize strncmp_ret_172_32)
(minimize strlen_84_64)
(minimize num_bytes_179_64)
(minimize strlen_93_64)
(minimize strncmp_ret_142_32)
(maximize num_bytes_180_64)
(maximize strncmp_ret_289_32)
(minimize strlen_129_64)
(minimize strncmp_ret_136_32)
(minimize args_10_32)
(maximize strlen_141_64)
(minimize args_7_16)
(maximize strlen_123_64)
(maximize args_0_8)
(minimize num_bytes_181_64)
(maximize strlen_87_64)
(minimize strncmp_ret_91_32)
(minimize args_9_16)
(maximize strncmp_ret_106_32)
(maximize strncmp_ret_79_32)
(maximize strlen_135_64)
(minimize strncmp_ret_94_32)
(maximize strlen_157_64)
(maximize strlen_288_64)
(maximize strlen_117_64)
(maximize strlen_105_64)
(maximize strlen_171_64)
(maximize args_2_8)
(minimize strlen_87_64)
(minimize strlen_288_64)
(minimize strlen_105_64)
(maximize args_12_32)
(minimize args_3_8)
(minimize args_6_16)
(minimize args_2_8)
(maximize args_15_64)
(minimize strncmp_ret_289_32)
(minimize args_1_8)
(minimize strncmp_ret_172_32)
(minimize strncmp_ret_112_32)
(minimize strncmp_ret_261_32)
(minimize strlen_260_64)
(maximize strlen_90_64)
(minimize args_17_64)
(minimize strlen_117_64)
(minimize strncmp_ret_82_32)
(maximize strncmp_ret_142_32)
(maximize strncmp_ret_148_32)
(minimize strlen_141_64)
(maximize strncmp_ret_85_32)
(maximize args_10_32)
(maximize num_bytes_179_64)
(maximize args_11_32)
(maximize args_8_16)
(maximize args_7_16)
(minimize strncmp_ret_85_32)
(maximize strlen_147_64)
(maximize strncmp_ret_136_32)
(minimize strlen_111_64)
(minimize strlen_81_64)
(maximize args_1_8)
(maximize strlen_93_64)
(minimize strlen_135_64)
(maximize strncmp_ret_88_32)
(maximize args_4_8)
(minimize args_13_32)
(minimize args_4_8)
(maximize strncmp_ret_130_32)
(minimize strncmp_ret_79_32)
(minimize strncmp_ret_158_32)
(minimize args_12_32)
(minimize strlen_99_64)
(maximize args_14_32)
(maximize num_bytes_181_64)
(maximize strncmp_ret_91_32)
(maximize strlen_99_64)
(maximize strncmp_ret_100_32)
(maximize strncmp_ret_158_32)
(maximize args_5_16)
(minimize args_14_32)
(maximize strncmp_ret_112_32)
(minimize strlen_78_64)
(minimize strncmp_ret_88_32)
(minimize strncmp_ret_130_32)
(minimize strlen_147_64)
(maximize args_13_32)
(check-sat)
(get-objectives)
